<?xml version="1.0" encoding="UTF-8"?><osil xmlns="os.optimizationservices.org"   xmlns:xsi="http://www.w3.org/2001/XMLSchema-instance" xsi:schemaLocation="os.optimizationservices.org http://www.optimizationservices.org/schemas/2.0/OSiL.xsd" ><instanceHeader><name>q_20_0_100_4</name></instanceHeader><instanceData><variables numberOfVariables="20"><var name="x1" ub="1"/><var name="x2" ub="1"/><var name="x3" ub="1"/><var name="x4" ub="1"/><var name="x5" ub="1"/><var name="x6" ub="1"/><var name="x7" ub="1"/><var name="x8" ub="1"/><var name="x9" ub="1"/><var name="x10" ub="1"/><var name="x11" ub="1"/><var name="x12" ub="1"/><var name="x13" ub="1"/><var name="x14" ub="1"/><var name="x15" ub="1"/><var name="x16" ub="1"/><var name="x17" ub="1"/><var name="x18" ub="1"/><var name="x19" ub="1"/><var name="x20" ub="1"/></variables><objectives numberOfObjectives="1"><obj maxOrMin="min" name="defObj_x21" numberOfObjCoef="20"><coef idx="0">-.2679</coef><coef idx="1">-.6916</coef><coef idx="2">.9618</coef><coef idx="3">.8635</coef><coef idx="4">-.5314</coef><coef idx="5">-.7532</coef><coef idx="6">-.2676</coef><coef idx="7">.6789</coef><coef idx="8">-.7484</coef><coef idx="9">.9799</coef><coef idx="10">-4.e-2</coef><coef idx="11">.9229</coef><coef idx="12">.9211</coef><coef idx="13">.5065</coef><coef idx="14">.2912</coef><coef idx="15">.3298</coef><coef idx="16">.7586</coef><coef idx="17">.4593</coef><coef idx="18">.3926</coef><coef idx="19">6.87e-2</coef></obj></objectives><quadraticCoefficients  numberOfQuadraticTerms="210" ><qTerm  idx="-1"  idxOne="0"  idxTwo="0"  coef=".8139"/><qTerm  idx="-1"  idxOne="0"  idxTwo="1"  coef=".8304"/><qTerm  idx="-1"  idxOne="0"  idxTwo="2"  coef="-.3323"/><qTerm  idx="-1"  idxOne="0"  idxTwo="3"  coef="-.4014"/><qTerm  idx="-1"  idxOne="0"  idxTwo="4"  coef=".6574"/><qTerm  idx="-1"  idxOne="0"  idxTwo="5"  coef="-8.13e-2"/><qTerm  idx="-1"  idxOne="0"  idxTwo="6"  coef="-.9703"/><qTerm  idx="-1"  idxOne="0"  idxTwo="7"  coef="-.3218"/><qTerm  idx="-1"  idxOne="0"  idxTwo="8"  coef="-.8836"/><qTerm  idx="-1"  idxOne="0"  idxTwo="9"  coef="-.8145"/><qTerm  idx="-1"  idxOne="0"  idxTwo="10"  coef=".3035"/><qTerm  idx="-1"  idxOne="0"  idxTwo="11"  coef="-.2096"/><qTerm  idx="-1"  idxOne="0"  idxTwo="12"  coef=".2399"/><qTerm  idx="-1"  idxOne="0"  idxTwo="13"  coef=".6504"/><qTerm  idx="-1"  idxOne="0"  idxTwo="14"  coef="-.3218"/><qTerm  idx="-1"  idxOne="0"  idxTwo="15"  coef="-.3831"/><qTerm  idx="-1"  idxOne="0"  idxTwo="16"  coef="-.2782"/><qTerm  idx="-1"  idxOne="0"  idxTwo="17"  coef="-.1766"/><qTerm  idx="-1"  idxOne="0"  idxTwo="18"  coef="-7.81e-2"/><qTerm  idx="-1"  idxOne="0"  idxTwo="19"  coef="-.2352"/><qTerm  idx="-1"  idxOne="1"  idxTwo="1"  coef=".2862"/><qTerm  idx="-1"  idxOne="1"  idxTwo="2"  coef="-.5167"/><qTerm  idx="-1"  idxOne="1"  idxTwo="3"  coef=".4314"/><qTerm  idx="-1"  idxOne="1"  idxTwo="4"  coef=".7136"/><qTerm  idx="-1"  idxOne="1"  idxTwo="5"  coef="-.6721"/><qTerm  idx="-1"  idxOne="1"  idxTwo="6"  coef=".4626"/><qTerm  idx="-1"  idxOne="1"  idxTwo="7"  coef="1.98e-2"/><qTerm  idx="-1"  idxOne="1"  idxTwo="8"  coef="-.4397"/><qTerm  idx="-1"  idxOne="1"  idxTwo="9"  coef=".9861"/><qTerm  idx="-1"  idxOne="1"  idxTwo="10"  coef=".5225"/><qTerm  idx="-1"  idxOne="1"  idxTwo="11"  coef="-.9346"/><qTerm  idx="-1"  idxOne="1"  idxTwo="12"  coef=".4133"/><qTerm  idx="-1"  idxOne="1"  idxTwo="13"  coef=".3442"/><qTerm  idx="-1"  idxOne="1"  idxTwo="14"  coef="-.8199"/><qTerm  idx="-1"  idxOne="1"  idxTwo="15"  coef="-7.76e-2"/><qTerm  idx="-1"  idxOne="1"  idxTwo="16"  coef="-.4723"/><qTerm  idx="-1"  idxOne="1"  idxTwo="17"  coef="-.289"/><qTerm  idx="-1"  idxOne="1"  idxTwo="18"  coef=".4463"/><qTerm  idx="-1"  idxOne="1"  idxTwo="19"  coef="-.9454"/><qTerm  idx="-1"  idxOne="2"  idxTwo="2"  coef=".1697"/><qTerm  idx="-1"  idxOne="2"  idxTwo="3"  coef=".3885"/><qTerm  idx="-1"  idxOne="2"  idxTwo="4"  coef="-.7786"/><qTerm  idx="-1"  idxOne="2"  idxTwo="5"  coef="5.25e-2"/><qTerm  idx="-1"  idxOne="2"  idxTwo="6"  coef=".9874"/><qTerm  idx="-1"  idxOne="2"  idxTwo="7"  coef=".4525"/><qTerm  idx="-1"  idxOne="2"  idxTwo="8"  coef=".521"/><qTerm  idx="-1"  idxOne="2"  idxTwo="9"  coef="-.5928"/><qTerm  idx="-1"  idxOne="2"  idxTwo="10"  coef=".7265"/><qTerm  idx="-1"  idxOne="2"  idxTwo="11"  coef="-.615"/><qTerm  idx="-1"  idxOne="2"  idxTwo="12"  coef="-.8237"/><qTerm  idx="-1"  idxOne="2"  idxTwo="13"  coef="-.5174"/><qTerm  idx="-1"  idxOne="2"  idxTwo="14"  coef=".821"/><qTerm  idx="-1"  idxOne="2"  idxTwo="15"  coef=".6597"/><qTerm  idx="-1"  idxOne="2"  idxTwo="16"  coef="-.8449"/><qTerm  idx="-1"  idxOne="2"  idxTwo="17"  coef=".743"/><qTerm  idx="-1"  idxOne="2"  idxTwo="18"  coef=".1144"/><qTerm  idx="-1"  idxOne="2"  idxTwo="19"  coef="-.2056"/><qTerm  idx="-1"  idxOne="3"  idxTwo="3"  coef=".9986"/><qTerm  idx="-1"  idxOne="3"  idxTwo="4"  coef=".54"/><qTerm  idx="-1"  idxOne="3"  idxTwo="5"  coef=".5713"/><qTerm  idx="-1"  idxOne="3"  idxTwo="6"  coef=".5068"/><qTerm  idx="-1"  idxOne="3"  idxTwo="7"  coef=".1204"/><qTerm  idx="-1"  idxOne="3"  idxTwo="8"  coef=".3888"/><qTerm  idx="-1"  idxOne="3"  idxTwo="9"  coef=".7512"/><qTerm  idx="-1"  idxOne="3"  idxTwo="10"  coef="-.9713"/><qTerm  idx="-1"  idxOne="3"  idxTwo="11"  coef="-.4285"/><qTerm  idx="-1"  idxOne="3"  idxTwo="12"  coef="-.6373"/><qTerm  idx="-1"  idxOne="3"  idxTwo="13"  coef=".6154"/><qTerm  idx="-1"  idxOne="3"  idxTwo="14"  coef=".1051"/><qTerm  idx="-1"  idxOne="3"  idxTwo="15"  coef="-2.83e-2"/><qTerm  idx="-1"  idxOne="3"  idxTwo="16"  coef="7.35e-2"/><qTerm  idx="-1"  idxOne="3"  idxTwo="17"  coef="-.9093"/><qTerm  idx="-1"  idxOne="3"  idxTwo="18"  coef="-.7123"/><qTerm  idx="-1"  idxOne="3"  idxTwo="19"  coef=".5603"/><qTerm  idx="-1"  idxOne="4"  idxTwo="4"  coef=".5412"/><qTerm  idx="-1"  idxOne="4"  idxTwo="5"  coef="-.6809"/><qTerm  idx="-1"  idxOne="4"  idxTwo="6"  coef="-6.21e-2"/><qTerm  idx="-1"  idxOne="4"  idxTwo="7"  coef="-.674"/><qTerm  idx="-1"  idxOne="4"  idxTwo="8"  coef="9.77e-2"/><qTerm  idx="-1"  idxOne="4"  idxTwo="9"  coef="-.3899"/><qTerm  idx="-1"  idxOne="4"  idxTwo="10"  coef="-.6912"/><qTerm  idx="-1"  idxOne="4"  idxTwo="11"  coef=".15"/><qTerm  idx="-1"  idxOne="4"  idxTwo="12"  coef="-.7118"/><qTerm  idx="-1"  idxOne="4"  idxTwo="13"  coef="-.6134"/><qTerm  idx="-1"  idxOne="4"  idxTwo="14"  coef=".3822"/><qTerm  idx="-1"  idxOne="4"  idxTwo="15"  coef=".9004"/><qTerm  idx="-1"  idxOne="4"  idxTwo="16"  coef="-.7372"/><qTerm  idx="-1"  idxOne="4"  idxTwo="17"  coef=".42"/><qTerm  idx="-1"  idxOne="4"  idxTwo="18"  coef="-.2405"/><qTerm  idx="-1"  idxOne="4"  idxTwo="19"  coef="-.204"/><qTerm  idx="-1"  idxOne="5"  idxTwo="5"  coef="-.998"/><qTerm  idx="-1"  idxOne="5"  idxTwo="6"  coef="-.1736"/><qTerm  idx="-1"  idxOne="5"  idxTwo="7"  coef=".6076"/><qTerm  idx="-1"  idxOne="5"  idxTwo="8"  coef=".7557"/><qTerm  idx="-1"  idxOne="5"  idxTwo="9"  coef="-.7184"/><qTerm  idx="-1"  idxOne="5"  idxTwo="10"  coef="-.9139"/><qTerm  idx="-1"  idxOne="5"  idxTwo="11"  coef=".1313"/><qTerm  idx="-1"  idxOne="5"  idxTwo="12"  coef="-.8836"/><qTerm  idx="-1"  idxOne="5"  idxTwo="13"  coef=".7427"/><qTerm  idx="-1"  idxOne="5"  idxTwo="14"  coef="-.3114"/><qTerm  idx="-1"  idxOne="5"  idxTwo="15"  coef="-2.03e-2"/><qTerm  idx="-1"  idxOne="5"  idxTwo="16"  coef="-.4356"/><qTerm  idx="-1"  idxOne="5"  idxTwo="17"  coef="-.5229"/><qTerm  idx="-1"  idxOne="5"  idxTwo="18"  coef="9.93e-2"/><qTerm  idx="-1"  idxOne="5"  idxTwo="19"  coef=".4277"/><qTerm  idx="-1"  idxOne="6"  idxTwo="6"  coef=".8057"/><qTerm  idx="-1"  idxOne="6"  idxTwo="7"  coef=".5147"/><qTerm  idx="-1"  idxOne="6"  idxTwo="8"  coef="7.85e-2"/><qTerm  idx="-1"  idxOne="6"  idxTwo="9"  coef=".2918"/><qTerm  idx="-1"  idxOne="6"  idxTwo="10"  coef=".5539"/><qTerm  idx="-1"  idxOne="6"  idxTwo="11"  coef=".758"/><qTerm  idx="-1"  idxOne="6"  idxTwo="12"  coef=".2055"/><qTerm  idx="-1"  idxOne="6"  idxTwo="13"  coef="-.877"/><qTerm  idx="-1"  idxOne="6"  idxTwo="14"  coef="-.1218"/><qTerm  idx="-1"  idxOne="6"  idxTwo="15"  coef="-.9826"/><qTerm  idx="-1"  idxOne="6"  idxTwo="16"  coef="-.4008"/><qTerm  idx="-1"  idxOne="6"  idxTwo="17"  coef=".947"/><qTerm  idx="-1"  idxOne="6"  idxTwo="18"  coef=".9103"/><qTerm  idx="-1"  idxOne="6"  idxTwo="19"  coef="-.5734"/><qTerm  idx="-1"  idxOne="7"  idxTwo="7"  coef=".3479"/><qTerm  idx="-1"  idxOne="7"  idxTwo="8"  coef="7.23e-2"/><qTerm  idx="-1"  idxOne="7"  idxTwo="9"  coef="-.2806"/><qTerm  idx="-1"  idxOne="7"  idxTwo="10"  coef="-.9973"/><qTerm  idx="-1"  idxOne="7"  idxTwo="11"  coef=".6989"/><qTerm  idx="-1"  idxOne="7"  idxTwo="12"  coef="-.1571"/><qTerm  idx="-1"  idxOne="7"  idxTwo="13"  coef=".4957"/><qTerm  idx="-1"  idxOne="7"  idxTwo="14"  coef="-.9767"/><qTerm  idx="-1"  idxOne="7"  idxTwo="15"  coef=".2287"/><qTerm  idx="-1"  idxOne="7"  idxTwo="16"  coef="-.1111"/><qTerm  idx="-1"  idxOne="7"  idxTwo="17"  coef=".3253"/><qTerm  idx="-1"  idxOne="7"  idxTwo="18"  coef=".3775"/><qTerm  idx="-1"  idxOne="7"  idxTwo="19"  coef=".8783"/><qTerm  idx="-1"  idxOne="8"  idxTwo="8"  coef=".4335"/><qTerm  idx="-1"  idxOne="8"  idxTwo="9"  coef="-9.67e-2"/><qTerm  idx="-1"  idxOne="8"  idxTwo="10"  coef=".269"/><qTerm  idx="-1"  idxOne="8"  idxTwo="11"  coef="-.5516"/><qTerm  idx="-1"  idxOne="8"  idxTwo="12"  coef="-.2037"/><qTerm  idx="-1"  idxOne="8"  idxTwo="13"  coef=".6602"/><qTerm  idx="-1"  idxOne="8"  idxTwo="14"  coef="-.722"/><qTerm  idx="-1"  idxOne="8"  idxTwo="15"  coef=".5119"/><qTerm  idx="-1"  idxOne="8"  idxTwo="16"  coef=".586"/><qTerm  idx="-1"  idxOne="8"  idxTwo="17"  coef="-.5442"/><qTerm  idx="-1"  idxOne="8"  idxTwo="18"  coef="5.62e-2"/><qTerm  idx="-1"  idxOne="8"  idxTwo="19"  coef="-.7251"/><qTerm  idx="-1"  idxOne="9"  idxTwo="9"  coef="-.6521"/><qTerm  idx="-1"  idxOne="9"  idxTwo="10"  coef="-.7049"/><qTerm  idx="-1"  idxOne="9"  idxTwo="11"  coef=".62"/><qTerm  idx="-1"  idxOne="9"  idxTwo="12"  coef="-.497"/><qTerm  idx="-1"  idxOne="9"  idxTwo="13"  coef="-.1799"/><qTerm  idx="-1"  idxOne="9"  idxTwo="14"  coef=".9132"/><qTerm  idx="-1"  idxOne="9"  idxTwo="15"  coef=".4395"/><qTerm  idx="-1"  idxOne="9"  idxTwo="16"  coef=".6708"/><qTerm  idx="-1"  idxOne="9"  idxTwo="17"  coef=".5537"/><qTerm  idx="-1"  idxOne="9"  idxTwo="18"  coef="7.58e-2"/><qTerm  idx="-1"  idxOne="9"  idxTwo="19"  coef=".2226"/><qTerm  idx="-1"  idxOne="10"  idxTwo="10"  coef=".3882"/><qTerm  idx="-1"  idxOne="10"  idxTwo="11"  coef=".2014"/><qTerm  idx="-1"  idxOne="10"  idxTwo="12"  coef="-.8073"/><qTerm  idx="-1"  idxOne="10"  idxTwo="13"  coef="9.84e-2"/><qTerm  idx="-1"  idxOne="10"  idxTwo="14"  coef="-.4142"/><qTerm  idx="-1"  idxOne="10"  idxTwo="15"  coef="-.5883"/><qTerm  idx="-1"  idxOne="10"  idxTwo="16"  coef=".6861"/><qTerm  idx="-1"  idxOne="10"  idxTwo="17"  coef=".303"/><qTerm  idx="-1"  idxOne="10"  idxTwo="18"  coef=".9262"/><qTerm  idx="-1"  idxOne="10"  idxTwo="19"  coef=".2199"/><qTerm  idx="-1"  idxOne="11"  idxTwo="11"  coef="-.1922"/><qTerm  idx="-1"  idxOne="11"  idxTwo="12"  coef="-.7428"/><qTerm  idx="-1"  idxOne="11"  idxTwo="13"  coef="-.7244"/><qTerm  idx="-1"  idxOne="11"  idxTwo="14"  coef="-.5698"/><qTerm  idx="-1"  idxOne="11"  idxTwo="15"  coef="4.6e-2"/><qTerm  idx="-1"  idxOne="11"  idxTwo="16"  coef=".4195"/><qTerm  idx="-1"  idxOne="11"  idxTwo="17"  coef="4.48e-2"/><qTerm  idx="-1"  idxOne="11"  idxTwo="18"  coef="-.6311"/><qTerm  idx="-1"  idxOne="11"  idxTwo="19"  coef=".7262"/><qTerm  idx="-1"  idxOne="12"  idxTwo="12"  coef="-.3714"/><qTerm  idx="-1"  idxOne="12"  idxTwo="13"  coef="-.9939"/><qTerm  idx="-1"  idxOne="12"  idxTwo="14"  coef=".9992"/><qTerm  idx="-1"  idxOne="12"  idxTwo="15"  coef=".7608"/><qTerm  idx="-1"  idxOne="12"  idxTwo="16"  coef="-.5125"/><qTerm  idx="-1"  idxOne="12"  idxTwo="17"  coef="8.78e-2"/><qTerm  idx="-1"  idxOne="12"  idxTwo="18"  coef=".522"/><qTerm  idx="-1"  idxOne="12"  idxTwo="19"  coef=".3632"/><qTerm  idx="-1"  idxOne="13"  idxTwo="13"  coef="-.1574"/><qTerm  idx="-1"  idxOne="13"  idxTwo="14"  coef=".1895"/><qTerm  idx="-1"  idxOne="13"  idxTwo="15"  coef="-.1071"/><qTerm  idx="-1"  idxOne="13"  idxTwo="16"  coef=".889"/><qTerm  idx="-1"  idxOne="13"  idxTwo="17"  coef="-.6673"/><qTerm  idx="-1"  idxOne="13"  idxTwo="18"  coef=".9491"/><qTerm  idx="-1"  idxOne="13"  idxTwo="19"  coef="-.8262"/><qTerm  idx="-1"  idxOne="14"  idxTwo="14"  coef="-.6978"/><qTerm  idx="-1"  idxOne="14"  idxTwo="15"  coef=".8198"/><qTerm  idx="-1"  idxOne="14"  idxTwo="16"  coef="-.5889"/><qTerm  idx="-1"  idxOne="14"  idxTwo="17"  coef="-.5569"/><qTerm  idx="-1"  idxOne="14"  idxTwo="18"  coef="-.7317"/><qTerm  idx="-1"  idxOne="14"  idxTwo="19"  coef=".3949"/><qTerm  idx="-1"  idxOne="15"  idxTwo="15"  coef=".9541"/><qTerm  idx="-1"  idxOne="15"  idxTwo="16"  coef="-.9943"/><qTerm  idx="-1"  idxOne="15"  idxTwo="17"  coef="-1.16e-2"/><qTerm  idx="-1"  idxOne="15"  idxTwo="18"  coef="-.5047"/><qTerm  idx="-1"  idxOne="15"  idxTwo="19"  coef=".8051"/><qTerm  idx="-1"  idxOne="16"  idxTwo="16"  coef="-.7914"/><qTerm  idx="-1"  idxOne="16"  idxTwo="17"  coef=".5505"/><qTerm  idx="-1"  idxOne="16"  idxTwo="18"  coef="-.7908"/><qTerm  idx="-1"  idxOne="16"  idxTwo="19"  coef=".2414"/><qTerm  idx="-1"  idxOne="17"  idxTwo="17"  coef="-.3313"/><qTerm  idx="-1"  idxOne="17"  idxTwo="18"  coef=".9555"/><qTerm  idx="-1"  idxOne="17"  idxTwo="19"  coef=".3839"/><qTerm  idx="-1"  idxOne="18"  idxTwo="18"  coef=".6554"/><qTerm  idx="-1"  idxOne="18"  idxTwo="19"  coef=".9363"/><qTerm  idx="-1"  idxOne="19"  idxTwo="19"  coef="-.4451"/></quadraticCoefficients></instanceData></osil>
